1 0 0 0 1 0 0 1 1 1 1 0 
0 9 45 29 25 22 8 20 17 46 44 33 
9 0 10 7 11 12 18 34 24 13 27 36 
45 10 0 11 32 26 33 43 16 40 42 46 
29 7 11 0 38 51 40 22 37 42 40 16 
25 11 32 38 0 7 8 44 46 9 34 33 
22 12 26 51 7 0 17 37 50 29 31 48 
8 18 33 40 8 17 0 16 9 50 45 16 
20 34 43 22 44 37 16 0 14 52 50 49 
17 24 16 37 46 50 9 14 0 29 28 9 
46 13 40 42 9 29 50 52 29 0 40 6 
44 27 42 40 34 31 45 50 28 40 0 32 
33 36 46 16 33 48 16 49 9 6 32 0 
2 21
1P 2B 11P 6B 5P 10P 12B 9P 3B 4B 8P 7B = 171